
(set-logic ALL) 

(declare-datatype MyList ((Nil) (Cons (head Real) (tail MyList)) )) 
(declare-fun l0 () MyList) 
(declare-fun l1 () MyList) 
(declare-fun l2 () MyList) 
(declare-fun l3 () MyList) 
(declare-fun i0 () Real) 
(declare-fun i1 () Real) 
(assert (and (is-Cons Nil) (is-Cons Nil) (= l1 Nil)) )
(assert (is-Cons Nil) )
(assert (is-Cons l0) )
(assert (is-Cons Nil) )
(assert (not (= l0 l3)) )
(assert (and (= l1 Nil) (= l2 l1) (= l0 l3) (is-Nil l0)) )
(assert (not (is-Cons Nil)) )
(assert (= l3 Nil) )
(check-sat)
